GLPSOL--GLPK LP/MIP Solver 5.0
Parameter(s) specified in the command line:
 --lp ../20_328.lp --log 20_328.log -o 20_328.txt
Reading problem data from '../20_328.lp'...
6641 rows, 13160 columns, 45980 non-zeros
6560 integer variables, all of which are binary
19827 lines were read
GLPK Integer Optimizer 5.0
6641 rows, 13160 columns, 45980 non-zeros
6560 integer variables, all of which are binary
Preprocessing...
6520 constraint coefficient(s) were reduced
6641 rows, 13140 columns, 45960 non-zeros
6560 integer variables, all of which are binary
Scaling...
 A: min|aij| =  1.487e-04  max|aij| =  4.000e+00  ratio =  2.690e+04
GM: min|aij| =  7.809e-02  max|aij| =  1.281e+01  ratio =  1.640e+02
EQ: min|aij| =  6.098e-03  max|aij| =  1.000e+00  ratio =  1.640e+02
2N: min|aij| =  4.759e-03  max|aij| =  1.749e+00  ratio =  3.676e+02
Constructing initial basis...
Size of triangular part is 6641
Solving LP relaxation...
GLPK Simplex Optimizer 5.0
6641 rows, 13140 columns, 45960 non-zeros
      0: obj =   4.000000000e+01 inf =   9.950e+01 (41)
Perturbing LP to avoid stalling [199]...
    419: obj =   1.350140368e-01 inf =   0.000e+00 (0)
Removing LP perturbation [1340]...
*  1340: obj =  -4.470665788e+00 inf =   7.746e-13 (0) 1
OPTIMAL LP SOLUTION FOUND
Integer optimization begins...
Long-step dual simplex will be used
+  1340: mip =     not found yet >=              -inf        (1; 0)
+  1549: >>>>>  -4.470665788e+00 >=  -4.470665788e+00   0.0% (207; 0)
+  1549: mip =  -4.470665788e+00 >=     tree is empty   0.0% (0; 413)
INTEGER OPTIMAL SOLUTION FOUND
Time used:   5.0 secs
Memory used: 19.3 Mb (20279086 bytes)
Writing MIP solution to '20_328.txt'...
